11
1 10
2 2
3 5
4 1
5 5
6 5
7 8
8 9
9 2
10 2
32
0 1 47
1 0 47
0 2 44
2 0 44
0 3 85
3 0 85
0 4 1
4 0 1
0 5 5
5 0 5
0 6 43
6 0 43
0 7 23
7 0 23
0 8 16
8 0 16
0 9 44
9 0 44
0 10 15
10 0 15
1 2 100
1 3 14
1 6 79
2 4 1
2 6 76
2 10 8
3 4 62
3 6 39
5 6 90
5 7 99
6 7 41
7 8 26
